Minimize
	2097151 x.0.0 + 
	2097151 x.0.1 + 
	2097151 x.0.2 + 
	2097151 x.1.0 + 
	2097151 x.1.1 + 
	2097151 x.1.2 + 
	2097151 x.2.0 + 
	2097151 x.2.1 + 
	2097151 x.2.2 + 
	2097151 x.3.0 + 
	2097151 x.3.1 + 
	2097151 x.3.2 + 
	d.0.1 + 
	d.0.2 + 
	d.0.3 + 
	d.1.2 + 
	d.1.3 + 
	d.2.3 + 
	50000 g.0 + 
	50000 g.1 + 
	50000 g.2 + 
	Zero

Subject To
	SingleTutor.0: x.0.0 + x.1.0 + x.2.0 + x.3.0 + g.0 + Zero = 1 
	SingleTutor.1: x.0.1 + x.1.1 + x.2.1 + x.3.1 + g.1 + Zero = 1 
	SingleTutor.2: x.0.2 + x.1.2 + x.2.2 + x.3.2 + g.2 + Zero = 1 

	XTutees.0: x.0.0 + x.0.1 + x.0.2 + Zero <= 4 
	XTutees.1: x.1.0 + x.1.1 + x.1.2 + Zero <= 5 
	XTutees.2: x.2.0 + x.2.1 + x.2.2 + Zero <= 1 
	XTutees.3: x.3.0 + x.3.1 + x.3.2 + Zero <= 3 

	D.0.1.1: x.0.0 - x.1.0 + x.0.1 - x.1.1 + x.0.2 - x.1.2 + Zero - d.0.1 <= 0 
	D.0.1.2: x.1.0 - x.0.0 + x.1.1 - x.0.1 + x.1.2 - x.0.2 + Zero - d.0.1 <= 0 
	D.0.2.1: x.0.0 - x.2.0 + x.0.1 - x.2.1 + x.0.2 - x.2.2 + Zero - d.0.2 <= 0 
	D.0.2.2: x.2.0 - x.0.0 + x.2.1 - x.0.1 + x.2.2 - x.0.2 + Zero - d.0.2 <= 0 
	D.0.3.1: x.0.0 - x.3.0 + x.0.1 - x.3.1 + x.0.2 - x.3.2 + Zero - d.0.3 <= 0 
	D.0.3.2: x.3.0 - x.0.0 + x.3.1 - x.0.1 + x.3.2 - x.0.2 + Zero - d.0.3 <= 0 
	D.1.2.1: x.1.0 - x.2.0 + x.1.1 - x.2.1 + x.1.2 - x.2.2 + Zero - d.1.2 <= 0 
	D.1.2.2: x.2.0 - x.1.0 + x.2.1 - x.1.1 + x.2.2 - x.1.2 + Zero - d.1.2 <= 0 
	D.1.3.1: x.1.0 - x.3.0 + x.1.1 - x.3.1 + x.1.2 - x.3.2 + Zero - d.1.3 <= 0 
	D.1.3.2: x.3.0 - x.1.0 + x.3.1 - x.1.1 + x.3.2 - x.1.2 + Zero - d.1.3 <= 0 
	D.2.3.1: x.2.0 - x.3.0 + x.2.1 - x.3.1 + x.2.2 - x.3.2 + Zero - d.2.3 <= 0 
	D.2.3.2: x.3.0 - x.2.0 + x.3.1 - x.2.1 + x.3.2 - x.2.2 + Zero - d.2.3 <= 0 

	Zero = 0

Binary
	x.0.0 
	x.0.1 
	x.0.2 
	x.1.0 
	x.1.1 
	x.1.2 
	x.2.0 
	x.2.1 
	x.2.2 
	x.3.0 
	x.3.1 
	x.3.2 
	g.0 
	g.1 
	g.2 

Integer
	d.0.1 
	d.0.2 
	d.0.3 
	d.1.2 
	d.1.3 
	d.2.3 
End